g3 1 1 0	# problem unknown
 34 37 1 0 26 	# vars, constraints, objectives, ranges, eqns
 10 0 0 0 0 0	# nonlinear constrs, objs; ccons: lin, nonlin, nd, nzlb
 0 0	# network constraints: nonlinear, linear
 20 0 0 	# nonlinear vars in constraints, objectives, both
 0 0 0 1	# linear network variables; functions; arith, flags
 0 0 0 10 0 	# discrete variables: binary, integer, nonlinear (b,c,o)
 77 3 	# nonzeros in Jacobian, obj. gradient
 0 0	# max name lengths: constraints, variables
 0 0 0 0 0	# common exprs: b,c,o,c1,o1
C0
o2
n-1
o2
v10
v0
C1
o2
n-1
o2
v11
v1
C2
o2
n-1
o2
v12
v2
C3
o2
n-1
o2
v13
v3
C4
o2
n-1
o2
v14
v4
C5
o2
n-1
o2
v15
v5
C6
o2
n-1
o2
v16
v6
C7
o2
n-1
o2
v17
v7
C8
o2
n-1
o2
v18
v8
C9
o2
n-1
o2
v19
v9
C10
n0
C11
n0
C12
n0
C13
n0
C14
n0
C15
n0
C16
n0
C17
n0
C18
n0
C19
n0
C20
n0
C21
n0
C22
n0
C23
n0
C24
n0
C25
n0
C26
n0
C27
n0
C28
n0
C29
n0
C30
n0
C31
n0
C32
n0
C33
n0
C34
n0
C35
n0
C36
n0
O0 0
n0
x0
r
1 0.0
1 0.0
1 0.0
1 0.0
1 0.0
1 0.0
1 0.0
1 0.0
1 0.0
1 0.0
4 0.0
4 0.0
4 0.0
4 0.0
4 0.0
4 0.0
4 0.0
4 0.0
4 0.0
4 0.0
4 0.0
4 0.0
4 0.0
4 0.0
4 0.0
4 0.0
4 0.0
4 0.0
4 0.0
4 986.2699945189776
4 0.0
4 0.0
4 0.0
4 0.0
4 0.0
4 0.0
1 4000.0
b
0 850 999999
2 0
0 0 999999
0 0 999999
2 0
2 0
2 0
0 0 200
2 0
2 0
0 0 1
0 0 1
0 0 1
0 0 1
0 0 1
0 0 1
0 0 1
0 0 1
0 0 1
0 0 1
2 0
2 0
2 0
2 0
2 0
2 0
2 0
2 0
2 0
2 0
2 0
2 0
2 0
2 0
k33
3
6
9
12
14
16
18
21
24
26
27
28
29
30
31
32
33
34
35
36
39
42
45
48
51
54
57
60
63
66
69
72
75
J0 2
0 1.0
10 0
J1 2
1 1.0
11 0
J2 2
2 1.0
12 0
J3 2
3 1.0
13 0
J4 2
4 1.0
14 0
J5 2
5 1.0
15 0
J6 2
6 1.0
16 0
J7 2
7 1.0
17 0
J8 2
8 1.0
18 0
J9 2
9 1.0
19 0
J10 2
1 1
20 -1
J11 2
8 1
22 -1
J12 2
9 1
24 -1
J13 2
2 1
29 -0.5010386499009793
J14 2
0 1
30 -0.4241702603798146
J15 2
3 1
31 -0.819077009846789
J16 2
7 1
32 -0.9322611919460555
J17 2
20 -1
29 1
J18 2
23 -1
30 1
J19 2
24 -1
31 1
J20 2
22 -1
32 1
J21 2
20 -1
29 1
J22 2
22 -1
32 1
J23 2
23 -1
30 1
J24 2
24 -1
31 1
J25 2
2 1
21 -1
J26 2
0 1
26 -1
J27 2
3 1
27 -1
J28 2
7 1
28 -1
J29 1
25 1
J30 2
4 1
25 -1
J31 4
21 1
23 -1
27 1
28 1
J32 2
25 -1
26 1
J33 4
5 1
21 -1
27 -1
28 -1
J34 2
6 1
26 -1
J35 3
1 0.04
8 0.0732
33 -1
J36 1
33 1
G0 3
1 0.03273477847375997
8 0.035521041369803254
9 0.03345461234378488
